c read Graph
c width = 59
c time = 40 ms
c width = 10
c time = 81 ms
c width = 9
c time = 102 ms
c width = 8
c time = 1000 ms
c width = 8
c time = 5129 ms
s td 64 9 72
b 1 1 2 10
b 2 2 3 10 11
b 3 7 8 17 18
b 4 3 10 11 19
b 5 7 17 18 27
b 6 46 55 56 65
b 7 54 62 63 71
b 8 46 56 65 66
b 9 54 62 70 71
b 10 3 4 5 13
b 11 3 5 12 13 20 28
b 12 5 12 13 20 22 28 30
b 13 5 13 20 22 28 30 38
b 14 5 13 22 28 30 38 46
b 15 28 37 38 46
b 16 5 13 15 22 23 30 38 46
b 17 5 15 22 23 30 31 38 46
b 18 5 13 14 15 23
b 19 20 28 29 30 38
b 20 12 20 21 22 30
b 21 3 12 19 20 28
b 22 3 11 12 19 20
b 23 5 15 23 30 31 38 39 46
b 24 5 15 23 31 32 38 39 40 46
b 25 5 15 23 32 38 39 40 46 47
b 26 5 15 23 32 39 40 46 47 48
b 27 5 15 23 32 40 46 47 48 56
b 28 5 15 23 32 40 46 48 56 66
b 29 5 15 23 32 40 48 56 57 66
b 30 5 15 23 32 40 48 49 57 66
b 31 5 15 23 32 40 41 49 57 66
b 32 5 15 23 32 33 41 49 57 66
b 33 5 15 23 33 41 49 57 58 66
b 34 5 15 23 33 41 49 50 58 66
b 35 5 15 23 33 41 42 50 58 66
b 36 5 15 23 33 42 50 58 66 67
b 37 5 15 23 33 42 50 58 59 67
b 38 5 15 23 33 42 50 51 59 67
b 39 5 15 23 33 42 43 51 59 67
b 40 5 15 23 33 43 51 59 67 68
b 41 5 15 23 33 43 51 59 68 69
b 42 5 15 23 33 43 51 59 61 69
b 43 5 15 23 33 43 51 53 61 69
b 44 5 15 23 33 43 53 61 69 70
b 45 5 15 23 33 43 53 54 61 70
b 46 5 15 23 33 43 44 53 54 70
b 47 5 15 23 33 34 43 44 54
b 48 5 15 23 24 33 34 44 54
b 49 5 15 24 34 36 44 54
b 50 36 44 45 54
b 51 5 15 24 26 34 36 44
b 52 5 15 16 24 26 34 36
b 53 16 24 25 26 34
b 54 5 7 15 16 26 36
b 55 5 6 7 15
b 56 7 16 26 27 36
b 57 7 16 17 26 27
b 58 26 34 35 36 44
b 59 43 51 52 53 61
b 60 53 54 61 62 70
b 61 51 59 60 61 69
b 62 63 71 72
b 63 55 64 65
b 64 8 9 18
1 2
2 4
3 64
3 5
4 22
5 57
6 63
6 8
7 62
7 9
8 28
9 60
10 11
11 21
11 12
12 20
12 13
13 19
13 14
14 16
14 15
16 18
16 17
17 23
21 22
23 24
24 25
25 26
26 27
27 28
28 29
29 30
30 31
31 32
32 33
33 34
34 35
35 36
36 37
37 38
38 39
39 40
40 41
41 42
42 61
42 43
43 59
43 44
44 45
45 60
45 46
46 47
47 48
48 49
49 50
49 51
51 52
51 58
52 53
52 54
54 56
54 55
56 57
